%chk=8e.chk
%mem=48GB
%NProcShared=10
#P B3LYP/6-311++G(2d,p) scf=tight Int=Ultrafine scrf(Solvent=Chloroform) NMR

8e

0 1
 C        35.306000       40.390999       32.439999
 H        36.268002       40.578999       32.932999
 H        34.547001       41.146999       32.674999
 H        35.034000       39.486000       32.998001
 C        35.526001       40.147999       30.941999
 C        34.466999       39.285000       30.289000
 H        34.859001       38.962002       29.316999
 H        34.285999       38.339001       30.813000
 H        33.521999       39.817001       30.121000
 C        35.620998       41.493999       30.267000
 H        36.262001       42.127998       30.891001
 H        35.986000       41.411999       29.236000
 H        34.639000       41.980999       30.218000
 O        36.817001       39.549000       30.688999
 C        37.196999       38.386002       31.275999
 O        36.379002       37.611000       31.778000
 N        38.507999       38.104000       30.959999
 H        39.028000       38.932999       30.698000
 C        39.165001       36.902000       31.511000
 C        39.481998       37.060001       32.993000
 N        38.424000       36.541000       33.799999
 H        37.675999       36.025002       33.352001
 O        40.512001       37.611000       33.368000
 H        38.373001       36.146000       31.552000
 C        40.289001       36.388000       30.598000
 H        41.134998       37.022999       30.888000
 H        40.069000       36.499001       29.528999
 C        40.700001       34.924999       30.926001
 C        41.509998       34.537998       32.019001
 C        41.722000       33.266998       32.390999
 H        42.244999       33.139000       33.334000
 H        41.946999       35.296001       32.662998
 C        40.250999       33.875000       30.082001
 H        39.653999       34.118000       29.208000
 C        40.409000       32.529999       30.511999
 H        39.897999       31.681999       30.065001
 C        41.042000       32.249001       31.731001
 O        40.893002       30.985001       32.271999
 C        40.299999       30.950001       33.455002
 C        41.161999       30.855000       34.575001
 C        40.751999       31.263000       35.882999
 H        41.500999       31.311001       36.668999
 H        42.176998       30.476000       34.500999
 C        38.973999       31.406000       33.650002
 H        38.272999       31.452999       32.821999
 C        38.581001       31.791000       34.932999
 H        37.542000       32.078999       35.057999
 C        39.462002       31.863001       36.030998
 C        39.071999       32.444000       37.395000
 O        39.646999       32.084999       38.464001
 C        37.941002       33.498001       37.466000
 H        37.020000       33.132000       36.994999
 H        37.840000       33.715000       38.535999
 N        38.428001       34.676998       36.751999
 H        39.421001       34.863998       36.686001
 C        37.646000       35.568001       36.035000
 O        36.463001       35.389000       35.950001
 C        38.338001       36.698002       35.242001
 H        39.379002       36.764000       35.582001
 C        37.714001       37.957001       35.716999
 C        36.497002       38.424000       35.212002
 H        36.032001       37.935001       34.361000
 C        35.884998       39.540001       35.771000
 H        34.931999       39.895000       35.391998
 C        36.570000       40.254002       36.776001
 H        36.082001       41.143002       37.164001
 C        37.780998       39.848000       37.271999
 H        38.330002       40.469002       37.973000
 C        38.334000       38.691002       36.687000
 H        39.269001       38.299000       37.076000


