%chk=8e.chk
%mem=48GB
%NProcShared=10
#P B3LYP/6-311++G(2d,p) scf=tight Int=Ultrafine scrf(Solvent=Chloroform) NMR

8e

0 1
 C        39.479000       30.823999       32.721001
 H        39.765999       30.098000       31.950001
 H        39.794998       31.851000       32.500999
 H        39.952999       30.399000       33.612999
 C        37.928001       30.698999       32.799999
 C        37.234001       30.871000       31.385000
 H        37.398998       31.806999       30.837000
 H        37.651001       30.105000       30.719000
 H        36.178001       30.580999       31.441000
 C        37.546001       29.347000       33.297001
 H        37.834000       28.525000       32.630001
 H        38.069000       29.056999       34.216000
 H        36.467999       29.250999       33.472000
 O        37.455002       31.624001       33.772999
 C        37.660000       32.910000       33.645000
 O        38.195999       33.512001       32.784000
 N        37.036999       33.556999       34.745998
 H        36.575001       32.858002       35.313999
 C        36.730000       35.032001       34.708000
 C        38.041000       35.820999       34.960999
 N        38.689999       36.167999       33.801998
 H        38.334999       35.941002       32.881001
 O        38.433998       36.139999       36.077000
 H        36.488998       35.216000       33.653000
 C        35.533001       35.384998       35.666000
 H        35.959000       35.200001       36.660000
 H        34.692001       34.700001       35.497002
 C        35.077000       36.772999       35.279999
 C        35.722000       37.896000       35.841000
 C        35.452999       39.136002       35.332001
 H        35.875000       40.049000       35.741001
 H        36.478001       37.870998       36.619999
 C        34.195000       36.949001       34.181000
 H        33.766998       36.085999       33.679001
 C        33.931000       38.155998       33.653999
 H        33.348999       38.187000       32.737000
 C        34.582001       39.263000       34.205002
 O        34.472000       40.511002       33.595001
 C        35.685001       40.941002       33.077999
 C        36.457001       41.911999       33.729000
 C        37.776001       42.216000       33.368999
 H        38.408001       42.910999       33.912998
 H        35.994999       42.578999       34.451000
 C        36.275002       40.196999       32.049000
 H        35.695999       39.505001       31.444000
 C        37.632999       40.431000       31.698000
 H        38.067001       39.905998       30.851999
 C        38.355999       41.455002       32.313999
 C        39.806999       41.507000       31.989000
 O        40.384998       42.568001       32.172001
 C        40.583000       40.275002       31.493999
 H        40.191002       39.841999       30.566000
 H        41.612000       40.644001       31.403999
 N        40.519001       39.223999       32.556999
 H        41.257999       39.141998       33.243999
 C        39.744999       38.078999       32.408001
 O        39.105999       37.737999       31.417000
 C        39.768002       37.229000       33.769001
 H        39.566002       37.888000       34.622002
 C        41.126999       36.720001       33.991001
 C        41.674999       35.888000       33.000000
 H        41.066002       35.466999       32.206001
 C        42.863998       35.240002       33.237000
 H        43.179001       34.494999       32.512001
 C        43.660999       35.591999       34.330002
 H        44.645000       35.145000       34.435001
 C        43.113998       36.547001       35.292999
 H        43.625999       36.813999       36.213001
 C        41.872002       37.124001       35.094002
 H        41.416000       37.757000       35.848999


