%chk=8e.chk
%mem=48GB
%NProcShared=10
#P B3LYP/6-311++G(2d,p) scf=tight Int=Ultrafine scrf(Solvent=Chloroform) NMR

8e

0 1
 C        43.719002       34.098000       34.933998
 H        44.550999       33.417000       35.148998
 H        43.148998       34.067001       35.870998
 H        43.148998       33.736000       34.069000
 C        44.196999       35.563000       34.674000
 C        44.702000       36.199001       35.933998
 H        43.999001       36.179001       36.776001
 H        45.466999       35.528000       36.344002
 H        45.096001       37.215000       35.814999
 C        45.285999       35.551998       33.622002
 H        46.272999       35.230999       33.978001
 H        45.058998       34.855999       32.805000
 H        45.449001       36.587002       33.299999
 O        43.166000       36.324001       34.136002
 C        42.022999       36.508999       34.783001
 O        41.702999       36.292000       35.941002
 N        41.188999       37.063999       33.874001
 H        41.507000       37.169998       32.917999
 C        39.764000       37.307999       34.226002
 C        38.861000       37.191002       33.000999
 N        38.012001       36.113998       33.030998
 H        38.115002       35.342999       33.680000
 O        38.931999       37.959000       32.049999
 H        39.599998       36.389000       34.800999
 C        39.625000       38.584999       35.037998
 H        40.009998       39.423000       34.444000
 H        40.319000       38.678001       35.882000
 C        38.206001       38.856998       35.515999
 C        37.291000       39.567001       34.778999
 C        35.919998       39.459000       34.987999
 H        35.268002       39.909000       34.244999
 H        37.466999       40.042000       33.818001
 C        37.730999       38.233002       36.683998
 H        38.388000       37.567001       37.236000
 C        36.370998       38.266998       37.034000
 H        36.049000       37.699001       37.902000
 C        35.422001       38.785999       36.108002
 O        34.090000       38.492001       36.188999
 C        33.549999       37.490002       35.463001
 C        32.414001       37.727001       34.751999
 C        31.992001       36.780998       33.847000
 H        31.236000       37.123001       33.146999
 H        31.969000       38.716000       34.713001
 C        34.254002       36.250999       35.390999
 H        35.096001       36.023998       36.037998
 C        33.721001       35.257999       34.591000
 H        34.125999       34.254002       34.668999
 C        32.693001       35.577999       33.720001
 C        32.439999       34.807999       32.493000
 O        31.403000       34.926998       31.865000
 C        33.581001       33.980999       31.771000
 H        33.875999       33.099998       32.354000
 H        33.159000       33.511002       30.872999
 N        34.804001       34.764999       31.499001
 H        34.799999       35.368999       30.686001
 C        35.959000       34.722000       32.279999
 O        36.186001       33.922001       33.160000
 C        36.984001       35.838001       31.940001
 H        36.429001       36.762001       31.737000
 C        37.601002       35.528000       30.684999
 C        37.644001       36.507000       29.677000
 H        37.026001       37.397999       29.733999
 C        38.404999       36.334000       28.546000
 H        38.551998       37.116001       27.806999
 C        39.096001       35.183998       28.337999
 H        39.723000       35.140999       27.452000
 C        38.963001       34.133999       29.261999
 H        39.463001       33.181000       29.121000
 C        38.181999       34.299000       30.396999
 H        38.112999       33.584999       31.212999


